Version identifier: 12.10.0.0 | 2019-11-26 | 843d4de
CPXPARAM_WorkMem                                 16384
CPXPARAM_MIP_Limits_TreeMemory                   24576
Tried aggregator 2 times.
Aggregator did 30 substitutions.
Reduced MIP has 134 rows, 160 columns, and 676 nonzeros.
Reduced MIP has 160 binaries, 0 generals, 0 SOSs, and 0 indicators.
Presolve time = 0,00 sec. (0,63 ticks)
Found incumbent of value 2708,000000 after 0,00 sec. (1,13 ticks)
Probing time = 0,00 sec. (0,26 ticks)
Tried aggregator 1 time.
Detecting symmetries...
MIP Presolve eliminated 20 rows and 0 columns.
MIP Presolve added 40 rows and 0 columns.
Reduced MIP has 154 rows, 160 columns, and 696 nonzeros.
Reduced MIP has 160 binaries, 0 generals, 0 SOSs, and 0 indicators.
Presolve time = 0,00 sec. (0,85 ticks)
Probing time = 0,00 sec. (0,26 ticks)
Clique table members: 486.
MIP emphasis: balance optimality and feasibility.
MIP search method: dynamic search.
Parallel mode: deterministic, using up to 16 threads.
Root relaxation solution time = 0,00 sec. (0,36 ticks)

        Nodes                                         Cuts/
   Node  Left     Objective  IInf  Best Integer    Best Bound    ItCnt     Gap

*     0+    0                         2708,0000        0,0000           100,00%
*     0+    0                         1817,0000        0,0000           100,00%
      0     0      677,0000   102     1817,0000      677,0000       40   62,74%
      0     0      677,0000   102     1817,0000     Cuts: 112       66   62,74%
      0     0      677,0000   102     1817,0000     Cuts: 138      101   62,74%
      0     0      677,4000   102     1817,0000     Cuts: 139      137   62,72%
      0     0      683,0247   102     1817,0000     Cuts: 140      156   62,41%
      0     0      684,3986   102     1817,0000      Cuts: 94      166   62,33%
      0     0      870,3467   102     1817,0000     Cuts: 139      293   52,10%
      0     0      882,2739   102     1817,0000      Cuts: 13      315   51,44%
      0     0      889,1364   102     1817,0000   ZeroHalf: 5      327   51,07%
*     0+    0                         1707,0000      889,1364            47,91%
      0     0      890,0334   102     1707,0000       Cuts: 9      330   47,86%
      0     0      895,4371   102     1707,0000  ZeroHalf: 11      345   47,54%
      0     0      896,8770   102     1707,0000   ZeroHalf: 2      359   47,46%
      0     0      897,4843   102     1707,0000       Cuts: 7      366   47,42%
      0     0      899,8441   102     1707,0000   ZeroHalf: 9      384   47,29%
      0     0      900,4698   102     1707,0000   ZeroHalf: 4      395   47,25%
      0     0      901,3129   102     1707,0000   ZeroHalf: 6      406   47,20%
      0     0      902,1978   102     1707,0000   ZeroHalf: 4      422   47,15%
      0     0      903,6558   102     1707,0000      Cuts: 18      434   47,06%
      0     0      903,9095   102     1707,0000   ZeroHalf: 2      442   47,05%
      0     0      904,2395   102     1707,0000       Cuts: 5      452   47,03%
      0     0      905,7660   102     1707,0000   ZeroHalf: 4      475   46,94%
      0     0      906,9556   102     1707,0000   ZeroHalf: 4      489   46,87%
      0     0      909,6220   102     1707,0000   ZeroHalf: 4      505   46,71%
      0     0      909,7289   102     1707,0000       Cuts: 6      511   46,71%
*     0+    0                         1643,0000      909,7289            44,63%
      0     2      909,7289   147     1643,0000     1117,1592      511   32,00%
Elapsed time = 0,22 sec. (86,20 ticks, tree = 0,02 MB, solutions = 4)

Clique cuts applied:  83
Cover cuts applied:  135
Implied bound cuts applied:  1
Mixed integer rounding cuts applied:  41
Zero-half cuts applied:  29
Lift and project cuts applied:  1
Gomory fractional cuts applied:  6

Root node processing (before b&c):
  Real time             =    0,21 sec. (85,99 ticks)
Parallel b&c, 16 threads:
  Real time             =    0,17 sec. (47,41 ticks)
  Sync time (average)   =    0,14 sec.
  Wait time (average)   =    0,00 sec.
                          ------------
Total (root+branch&cut) =    0,38 sec. (133,41 ticks)
